251
100
15 65
58 288
50 222
4 18
15 63
20 90
44 186
66 328
36 187
64 326
25 105
33 138
97 553
25 145
99 457
71 364
18 78
17 102
44 244
62 357
10 60
68 390
41 236
12 53
25 124
31 158
31 172
18 103
42 222
64 260
111 571
43 182
22 105
41 226
30 147
23 130
35 197
19 78
34 140
80 377
85 443
23 115
28 140
32 133
17 91
30 173
17 75
46 252
13 74
16 74
30 167
26 129
36 187
79 457
80 352
76 310
97 426
69 406
67 271
36 207
68 366
35 179
51 238
91 477
67 304
17 72
29 139
45 228
80 360
78 376
45 226
19 99
46 270
20 120
43 215
48 198
59 240
8 47
57 310
35 195
45 205
9 44
22 132
51 209
48 260
56 289
11 62
57 250
17 83
66 388
27 151
19 86
40 165
47 231
10 57
46 216
44 197
30 176
32 152
4 23